542 5
10 10 10 10 10 

0 0 0 0 0 0 4 2 54 106 158 
0 0 0 0 0 0 4 3 4 5 7 
1 4 3 1 5 4 5 16 13 12 11 8 
1 5 10 7 4 6 2 11 6 
1 9 4 5 9 10 1 6 
8 9 8 8 7 4 3 18 16 9 
4 6 10 5 9 5 2 18 9 
7 10 3 5 6 8 1 9 
1 4 9 10 6 9 1 10 
7 8 10 10 6 8 4 22 21 19 14 
3 4 10 6 5 7 4 21 19 18 14 
9 9 9 10 6 6 3 21 18 17 
4 7 8 10 6 5 2 21 15 
10 5 10 10 10 5 1 15 
10 6 10 7 6 9 1 17 
8 5 7 6 9 6 1 17 
10 9 5 10 10 5 4 29 28 24 20 
3 10 4 4 8 4 2 24 20 
8 8 10 9 10 10 3 28 24 23 
4 6 7 10 10 4 2 25 23 
1 7 5 6 8 8 1 24 
5 8 10 4 9 5 1 23 
9 4 3 4 9 10 1 26 
8 8 7 7 9 10 1 26 
4 2 6 7 6 10 1 26 
4 7 6 10 8 7 1 27 
5 7 10 6 7 10 1 30 
7 10 8 4 5 10 1 30 
9 6 6 9 6 10 1 30 
7 8 10 9 5 6 3 35 33 31 
5 8 5 8 10 10 1 32 
9 9 10 10 5 10 3 39 37 34 
9 5 8 10 9 9 2 37 34 
2 10 8 8 5 7 2 41 36 
5 9 10 9 9 10 2 41 37 
7 10 7 8 10 8 2 43 38 
8 10 9 9 5 10 1 38 
4 10 10 10 4 5 1 40 
6 8 9 10 9 10 1 41 
9 7 7 9 7 8 1 42 
6 8 6 10 6 10 1 42 
9 7 8 4 10 8 1 44 
6 7 7 7 10 5 1 44 
4 10 6 5 10 7 1 45 
9 4 5 10 5 4 2 49 46 
1 7 4 7 9 9 2 48 47 
3 5 8 6 4 7 2 52 50 
9 10 9 4 7 7 2 52 51 
4 10 3 10 10 6 1 50 
7 10 9 6 9 10 1 51 
9 10 9 10 10 7 1 53 
1 10 10 6 8 7 1 53 
0 0 0 0 0 0 1 542 
0 0 0 0 0 0 5 55 56 57 59 65 
1 7 4 2 4 6 4 70 68 64 60 
3 3 8 4 10 3 4 70 68 63 61 
5 4 10 9 5 6 2 61 58 
4 4 9 2 5 10 3 70 68 62 
10 5 5 9 10 6 2 70 61 
6 10 10 8 9 7 1 61 
1 8 8 9 10 10 1 62 
3 5 6 7 8 6 4 74 73 72 66 
2 7 4 10 8 10 3 74 73 67 
2 9 8 10 3 10 2 73 67 
8 5 10 6 4 8 2 70 69 
1 8 4 10 10 9 1 67 
5 10 6 8 6 7 1 69 
3 9 9 6 5 7 1 69 
7 9 2 7 10 10 4 81 80 75 71 
1 5 9 8 7 7 2 75 71 
10 7 7 3 8 9 2 78 76 
2 10 5 8 9 4 2 78 77 
7 5 9 8 6 10 1 75 
9 5 9 5 4 6 1 75 
6 4 7 8 5 9 1 77 
10 3 9 8 6 4 1 77 
10 6 9 10 9 7 1 79 
7 6 10 9 8 3 1 79 
8 8 7 10 6 8 2 87 82 
9 9 6 4 5 7 3 87 85 83 
2 6 3 8 5 10 1 82 
2 10 9 5 9 5 2 85 83 
10 6 5 10 8 10 1 84 
1 9 7 8 7 5 3 91 88 86 
10 9 8 6 10 8 3 93 88 86 
9 9 9 9 10 5 2 96 89 
2 10 6 10 4 10 2 93 88 
6 10 6 7 8 10 1 90 
3 10 7 5 7 8 1 90 
7 10 8 7 7 9 1 92 
5 9 6 7 10 10 1 93 
6 7 8 7 7 10 1 94 
7 10 9 8 8 2 1 94 
3 7 10 9 10 7 1 95 
3 10 4 6 8 6 1 97 
4 7 8 8 6 7 1 97 
9 6 10 9 9 6 2 100 98 
3 10 10 8 10 6 2 102 99 
10 10 10 9 10 10 2 104 101 
1 6 7 8 9 10 1 101 
1 9 8 8 7 7 1 103 
8 10 8 7 10 10 1 103 
2 6 10 10 10 10 1 105 
7 8 9 8 6 5 1 105 
0 0 0 0 0 0 1 542 
0 0 0 0 0 0 4 107 108 109 111 
8 5 8 4 6 5 5 120 117 116 115 112 
4 10 4 10 8 7 2 115 110 
3 5 10 5 10 6 1 110 
5 8 6 7 7 7 3 122 120 113 
9 8 7 10 7 3 3 122 120 113 
3 8 6 10 7 4 1 113 
5 5 7 7 7 10 1 114 
5 4 10 5 10 5 4 126 125 123 118 
1 6 10 7 10 10 4 125 123 122 118 
3 5 8 9 4 9 4 126 125 122 121 
4 8 9 8 9 6 2 125 119 
3 10 4 10 8 5 1 119 
7 4 10 6 5 2 1 121 
7 10 7 10 9 9 1 121 
5 7 10 7 10 6 4 133 131 128 124 
6 8 5 5 10 10 3 131 128 124 
3 10 5 6 7 8 3 133 128 127 
1 10 3 7 10 7 2 129 127 
3 5 6 3 8 9 1 128 
5 10 8 10 7 8 1 127 
2 6 10 9 10 10 1 130 
9 7 5 6 8 10 1 130 
7 10 10 10 9 7 1 130 
8 7 10 6 4 3 1 132 
3 10 8 10 6 5 1 132 
8 10 10 8 6 5 1 134 
7 6 6 10 10 10 1 134 
10 10 6 6 3 9 3 139 137 135 
7 7 6 9 3 9 1 136 
7 5 7 6 2 8 3 143 141 138 
3 9 10 8 7 10 2 141 138 
5 5 5 10 10 6 2 145 140 
5 10 4 9 9 10 2 145 141 
4 8 9 6 5 10 2 147 142 
4 8 6 4 4 10 1 142 
2 5 8 8 7 9 1 144 
1 10 10 8 9 7 1 145 
3 4 6 3 10 9 1 146 
9 9 4 8 7 6 1 146 
1 10 10 5 10 10 1 148 
3 10 10 7 9 9 1 148 
8 6 10 10 10 9 1 149 
9 9 10 8 8 10 2 152 150 
4 4 10 10 10 4 2 153 151 
8 7 8 6 9 6 2 156 154 
1 8 9 9 9 8 2 156 154 
2 10 8 7 3 7 2 156 155 
8 8 8 7 5 4 1 155 
4 5 4 9 7 10 1 157 
7 6 5 7 7 9 1 157 
0 0 0 0 0 0 1 542 
0 0 0 0 0 0 5 159 162 164 167 168 
6 0 0 5 0 0 2 166 160 
4 0 0 8 0 0 1 161 
8 0 0 9 0 0 1 163 
3 0 0 6 0 0 1 163 
4 0 0 10 0 0 1 165 
5 0 0 4 0 0 1 166 
7 0 0 5 0 0 1 169 
10 0 0 8 0 0 1 169 
10 0 0 10 0 0 1 169 
9 0 0 10 0 0 1 169 
0 0 0 0 0 0 4 170 212 224 266 
0 0 0 0 0 0 2 171 175 
2 5 2 0 7 4 1 172 
10 8 7 0 9 10 2 174 173 
9 7 8 0 6 5 3 183 179 176 
5 10 7 0 4 8 2 191 177 
7 8 5 0 9 8 2 179 177 
6 5 6 0 5 8 1 177 
4 8 9 0 8 10 3 184 182 178 
1 7 4 0 7 7 2 193 180 
7 10 7 0 5 8 2 193 182 
7 8 9 0 3 10 1 181 
10 7 10 0 7 9 3 196 192 185 
7 6 7 0 10 5 3 196 192 185 
9 3 9 0 8 9 3 196 192 185 
7 6 10 0 6 10 4 201 196 188 187 
5 5 6 0 9 8 3 201 188 186 
2 10 7 0 10 10 1 187 
1 7 6 0 9 5 4 210 205 198 189 
9 9 4 0 7 6 3 205 198 189 
3 6 10 0 9 6 1 190 
5 7 7 0 4 9 3 209 203 194 
6 7 7 0 7 10 3 202 198 196 
6 10 9 0 10 10 2 210 195 
6 10 10 0 9 4 2 202 196 
2 6 6 0 9 6 1 195 
6 7 9 0 7 5 1 197 
8 8 9 0 8 6 3 208 203 200 
5 7 8 0 7 5 2 207 199 
2 7 7 0 5 10 2 203 200 
3 10 7 0 8 5 2 208 202 
7 6 6 0 7 10 2 207 204 
8 10 10 0 6 5 1 202 
1 10 7 0 8 5 1 204 
3 8 6 0 5 10 1 204 
2 5 10 0 8 10 1 206 
7 6 8 0 8 9 1 207 
8 8 8 0 10 7 1 211 
2 10 8 0 10 5 1 211 
3 7 8 0 9 4 1 211 
10 7 9 0 7 10 1 211 
3 9 8 0 10 9 1 211 
0 0 0 0 0 0 1 542 
0 0 0 0 0 0 2 213 215 
10 1 0 0 0 0 1 214 
3 8 0 0 0 0 2 222 216 
8 7 0 0 0 0 2 218 217 
6 10 0 0 0 0 3 221 220 218 
7 10 0 0 0 0 3 221 220 219 
1 7 0 0 0 0 1 219 
10 10 0 0 0 0 1 223 
1 6 0 0 0 0 1 223 
2 10 0 0 0 0 1 223 
4 6 0 0 0 0 1 223 
0 0 0 0 0 0 4 308 320 352 384 
0 0 0 0 0 0 2 225 229 
5 2 4 4 1 0 1 226 
6 8 3 5 8 0 2 228 227 
7 10 6 8 9 0 3 237 233 230 
7 5 6 9 8 0 3 245 239 231 
3 10 6 6 9 0 3 239 233 231 
1 7 6 9 5 0 2 239 231 
7 8 10 10 10 0 2 236 232 
10 2 10 7 7 0 2 247 234 
7 9 10 6 10 0 2 247 236 
9 8 7 6 10 0 1 235 
10 10 10 5 7 0 3 250 246 238 
6 7 9 10 7 0 3 250 246 238 
9 9 9 5 6 0 3 250 246 238 
3 6 3 10 5 0 3 255 242 240 
2 7 3 7 8 0 5 264 259 255 250 242 
1 10 10 4 5 0 1 241 
6 6 6 8 6 0 4 264 259 252 243 
2 7 9 4 4 0 2 252 243 
2 9 4 9 8 0 1 244 
7 9 7 10 4 0 3 263 257 248 
7 8 7 7 8 0 3 256 252 250 
5 7 3 6 9 0 2 264 249 
4 6 10 10 7 0 2 256 250 
8 4 7 9 10 0 1 249 
2 9 5 6 3 0 1 251 
1 9 10 8 8 0 3 262 257 254 
5 6 10 10 10 0 2 261 253 
7 10 9 9 6 0 2 257 254 
7 8 8 9 10 0 2 262 256 
5 7 10 6 8 0 2 261 258 
7 4 8 10 8 0 1 256 
3 6 8 7 5 0 1 258 
6 4 6 8 7 0 1 258 
3 9 10 10 8 0 1 260 
9 8 10 4 7 0 1 261 
6 9 9 10 9 0 1 265 
2 10 10 8 10 0 1 265 
1 10 9 6 10 0 1 265 
4 9 7 8 10 0 1 265 
9 8 6 7 10 0 1 265 
0 0 0 0 0 0 1 542 
0 0 0 0 0 0 2 267 274 
2 0 3 3 5 7 2 306 268 
7 0 7 8 5 10 2 272 269 
8 0 7 10 10 5 4 292 279 276 270 
6 0 5 8 7 9 1 271 
6 0 10 5 6 10 2 277 273 
7 0 3 9 10 10 4 296 292 278 277 
1 0 8 8 9 7 2 296 275 
5 0 7 10 7 10 2 278 276 
3 0 9 10 5 10 3 295 290 278 
10 0 7 4 6 10 2 295 277 
9 0 5 5 5 6 4 305 290 283 280 
10 0 10 6 7 10 3 305 283 280 
5 0 10 6 10 7 4 303 295 290 281 
8 0 10 8 6 10 2 303 281 
6 0 5 10 10 5 2 304 282 
10 0 5 9 5 2 3 302 294 284 
8 0 8 6 7 8 4 303 301 294 285 
6 0 10 10 7 3 2 301 285 
5 0 9 9 7 7 2 300 286 
7 0 10 8 10 8 1 287 
2 0 5 8 7 9 2 299 288 
9 0 8 8 6 4 1 289 
9 0 4 4 5 10 2 298 291 
1 0 10 8 8 10 1 291 
1 0 4 10 10 5 1 293 
9 0 6 7 8 9 1 295 
8 0 5 6 10 7 1 297 
4 0 10 5 10 6 1 297 
1 0 8 7 7 10 1 298 
2 0 9 8 7 3 1 298 
5 0 10 7 10 6 1 307 
4 0 4 6 10 8 1 307 
4 0 8 7 8 10 1 307 
8 0 10 7 7 6 1 307 
6 0 8 8 8 6 1 307 
10 0 9 7 5 4 1 307 
3 0 9 8 3 6 1 307 
9 0 10 7 10 10 1 307 
8 0 10 10 10 10 1 307 
9 0 5 10 7 7 1 307 
0 0 0 0 0 0 1 542 
0 0 0 0 0 0 4 309 316 317 318 
1 0 0 0 2 0 1 310 
7 0 0 0 5 0 3 315 314 311 
9 0 0 0 10 0 1 312 
7 0 0 0 8 0 1 313 
6 0 0 0 10 0 1 319 
2 0 0 0 10 0 1 319 
9 0 0 0 5 0 1 319 
10 0 0 0 9 0 1 319 
9 0 0 0 6 0 1 319 
1 0 0 0 10 0 1 319 
0 0 0 0 0 0 4 416 428 450 472 
0 0 0 0 0 0 3 321 322 350 
5 0 5 2 0 2 2 349 323 
5 0 3 6 0 7 3 349 348 324 
6 0 10 10 0 6 2 337 324 
10 0 6 3 0 5 1 325 
8 0 8 10 0 2 3 347 346 326 
8 0 10 10 0 10 1 327 
10 0 10 10 0 7 3 345 344 328 
6 0 9 6 0 6 2 343 329 
2 0 3 7 0 9 1 330 
5 0 7 10 0 10 1 331 
10 0 7 7 0 8 2 342 332 
3 0 5 10 0 6 1 333 
2 0 7 10 0 7 4 341 340 336 334 
7 0 8 9 0 6 2 338 335 
2 0 6 6 0 6 1 339 
9 0 7 10 0 10 1 338 
9 0 9 9 0 10 1 348 
1 0 10 6 0 9 1 351 
9 0 9 8 0 6 1 351 
1 0 7 5 0 5 1 351 
4 0 6 6 0 10 1 351 
1 0 5 10 0 10 1 351 
8 0 8 7 0 8 1 351 
2 0 10 5 0 9 1 351 
8 0 10 5 0 10 1 351 
7 0 10 10 0 9 1 351 
1 0 6 4 0 9 1 351 
4 0 9 8 0 8 1 351 
6 0 6 9 0 10 1 351 
9 0 9 7 0 5 1 351 
0 0 0 0 0 0 1 542 
0 0 0 0 0 0 3 353 354 382 
10 4 0 5 6 0 2 381 355 
8 5 0 8 2 0 2 381 355 
4 7 0 5 3 0 2 360 356 
4 4 0 7 10 0 2 365 357 
5 5 0 6 5 0 3 380 374 358 
6 8 0 9 8 0 1 359 
4 8 0 5 9 0 2 368 361 
3 7 0 7 6 0 5 373 370 368 365 363 
7 6 0 6 4 0 2 373 362 
6 10 0 7 8 0 2 370 363 
3 10 0 10 10 0 1 364 
2 6 0 8 7 0 2 379 366 
10 8 0 10 9 0 1 366 
4 10 0 8 5 0 1 367 
3 10 0 7 9 0 3 378 372 369 
5 10 0 9 9 0 2 378 369 
7 9 0 10 5 0 3 377 376 371 
7 6 0 10 8 0 1 371 
1 5 0 4 10 0 1 375 
8 10 0 9 7 0 1 376 
1 4 0 7 7 0 1 379 
4 10 0 5 7 0 1 375 
4 6 0 5 7 0 1 383 
7 10 0 10 10 0 1 383 
8 10 0 9 9 0 1 383 
2 6 0 7 10 0 1 383 
8 7 0 8 10 0 1 383 
8 5 0 8 5 0 1 383 
7 10 0 10 10 0 1 383 
7 9 0 6 10 0 1 383 
0 0 0 0 0 0 1 542 
0 0 0 0 0 0 3 385 389 414 
7 1 0 0 5 5 2 413 386 
1 10 0 0 8 5 2 411 387 
5 6 0 0 10 8 1 388 
1 7 0 0 8 8 3 410 409 390 
9 6 0 0 10 7 3 412 409 390 
6 7 0 0 8 9 1 391 
8 6 0 0 6 7 3 408 407 392 
1 5 0 0 8 10 2 406 393 
6 4 0 0 6 7 1 394 
2 10 0 0 2 6 2 405 395 
2 4 0 0 10 5 1 396 
10 9 0 0 10 10 2 404 397 
5 9 0 0 8 10 4 403 402 401 398 
6 5 0 0 6 4 1 399 
10 10 0 0 6 10 1 400 
5 10 0 0 5 4 1 415 
1 9 0 0 6 10 1 415 
9 7 0 0 10 9 1 415 
4 7 0 0 6 8 1 415 
5 9 0 0 8 7 1 415 
5 7 0 0 9 8 1 415 
4 10 0 0 5 10 1 415 
2 10 0 0 9 10 1 415 
1 7 0 0 10 6 1 415 
4 6 0 0 7 8 1 415 
5 9 0 0 8 7 1 415 
5 9 0 0 10 8 1 415 
7 6 0 0 5 5 1 415 
2 10 0 0 10 7 1 415 
5 10 0 0 6 7 1 415 
0 0 0 0 0 0 1 542 
0 0 0 0 0 0 2 417 418 
6 0 0 0 0 4 2 421 419 
4 0 0 0 0 4 1 419 
3 0 0 0 0 8 2 422 420 
10 0 0 0 0 6 2 424 423 
5 0 0 0 0 10 2 424 423 
6 0 0 0 0 10 1 423 
8 0 0 0 0 6 2 426 425 
3 0 0 0 0 9 1 425 
2 0 0 0 0 10 1 427 
9 0 0 0 0 8 1 427 
0 0 0 0 0 0 4 494 506 518 530 
0 0 0 0 0 0 1 429 
10 0 0 3 2 0 2 433 430 
8 0 0 4 10 0 1 431 
5 0 0 10 7 0 2 437 432 
10 0 0 5 8 0 2 448 434 
4 0 0 10 7 0 5 448 447 441 440 435 
10 0 0 9 5 0 4 447 441 440 435 
4 0 0 10 9 0 3 446 445 436 
3 0 0 10 10 0 2 444 438 
5 0 0 6 10 0 3 445 443 442 
10 0 0 7 8 0 2 443 439 
9 0 0 6 5 0 1 442 
5 0 0 10 10 0 1 444 
10 0 0 8 8 0 1 442 
6 0 0 7 9 0 1 449 
5 0 0 6 9 0 1 449 
9 0 0 6 6 0 1 449 
9 0 0 9 5 0 1 449 
7 0 0 5 7 0 1 449 
6 0 0 10 9 0 1 449 
7 0 0 9 6 0 1 449 
0 0 0 0 0 0 1 542 
0 0 0 0 0 0 4 451 457 459 470 
1 1 0 0 1 0 2 469 452 
7 5 0 0 10 0 2 468 453 
9 10 0 0 7 0 4 467 466 465 454 
7 8 0 0 7 0 2 463 455 
7 8 0 0 6 0 2 464 456 
10 3 0 0 7 0 1 458 
1 6 0 0 8 0 2 463 461 
4 10 0 0 6 0 1 460 
5 5 0 0 4 0 2 463 462 
10 5 0 0 10 0 1 461 
8 9 0 0 5 0 1 462 
2 9 0 0 8 0 1 471 
4 10 0 0 9 0 1 471 
10 6 0 0 7 0 1 471 
3 10 0 0 9 0 1 471 
5 9 0 0 7 0 1 471 
2 9 0 0 10 0 1 471 
1 9 0 0 10 0 1 471 
1 8 0 0 9 0 1 471 
2 10 0 0 10 0 1 471 
0 0 0 0 0 0 1 542 
0 0 0 0 0 0 4 473 490 491 492 
1 4 0 0 2 0 4 489 488 487 474 
9 7 0 0 8 0 1 475 
4 7 0 0 5 0 1 476 
1 4 0 0 6 0 2 486 477 
6 10 0 0 10 0 2 485 478 
1 7 0 0 7 0 3 484 483 479 
9 2 0 0 5 0 1 480 
3 6 0 0 10 0 1 481 
8 10 0 0 6 0 1 482 
6 10 0 0 10 0 1 493 
7 7 0 0 4 0 1 493 
1 10 0 0 10 0 1 493 
1 4 0 0 6 0 1 493 
1 10 0 0 4 0 1 493 
4 9 0 0 8 0 1 493 
10 5 0 0 10 0 1 493 
6 10 0 0 9 0 1 493 
5 8 0 0 10 0 1 493 
7 10 0 0 10 0 1 493 
1 10 0 0 10 0 1 493 
0 0 0 0 0 0 1 542 
0 0 0 0 0 0 2 495 504 
4 0 0 0 0 4 3 501 498 496 
7 0 0 0 0 5 2 500 497 
10 0 0 0 0 10 2 502 499 
10 0 0 0 0 9 2 502 499 
9 0 0 0 0 9 1 503 
4 0 0 0 0 10 1 502 
2 0 0 0 0 10 1 502 
7 0 0 0 0 9 1 505 
4 0 0 0 0 4 1 505 
7 0 0 0 0 5 1 505 
0 0 0 0 0 0 1 542 
0 0 0 0 0 0 1 507 
9 0 0 0 4 0 2 511 508 
9 0 0 0 3 0 2 510 509 
9 0 0 0 9 0 3 515 513 512 
4 0 0 0 5 0 3 516 515 514 
3 0 0 0 8 0 2 515 514 
10 0 0 0 7 0 1 514 
9 0 0 0 10 0 1 514 
9 0 0 0 10 0 1 517 
10 0 0 0 10 0 1 517 
5 0 0 0 9 0 1 517 
0 0 0 0 0 0 1 542 
0 0 0 0 0 0 3 519 520 525 
5 0 0 0 4 0 1 521 
3 0 0 0 8 0 1 521 
4 0 0 0 6 0 2 523 522 
9 0 0 0 5 0 3 528 526 524 
6 0 0 0 10 0 3 528 527 526 
6 0 0 0 10 0 1 527 
2 0 0 0 7 0 1 526 
5 0 0 0 10 0 1 529 
4 0 0 0 9 0 1 529 
5 0 0 0 6 0 1 529 
0 0 0 0 0 0 1 542 
0 0 0 0 0 0 3 531 533 536 
4 7 0 0 0 0 1 532 
2 6 0 0 0 0 2 538 535 
1 6 0 0 0 0 1 534 
4 7 0 0 0 0 2 538 537 
5 10 0 0 0 0 2 540 537 
5 5 0 0 0 0 1 537 
7 8 0 0 0 0 1 539 
2 6 0 0 0 0 1 540 
7 10 0 0 0 0 1 541 
5 10 0 0 0 0 1 541 
0 0 0 0 0 0 1 542 
0 0 0 0 0 0 0 
